p cnf 40 118
a 19 12 0
e 1 2 3 4 5 6 7 8 9 10 11 13 14 15 16 17 18 20 21 22 23 24 25 26 27 28 29 30 31 32 33 34 35 36 37 38 39 40 0
-3 4 -5 0
3 -4 -5 0
-3 -4 5 0
3 4 5 0
7 -5 0
7 6 0
5 -6 -7 0
-8 2 0
-8 7 0
-2 -7 8 0
-6 -9 0
6 -9 0
-8 -9 -10 0
8 9 -10 0
-8 9 10 0
8 -9 10 0
-11 -10 0
-11 9 0
10 -9 11 0
-12 1 0
-12 11 0
-1 -11 12 0
9 -13 -14 0
-9 13 -14 0
9 13 14 0
-9 -13 14 0
-15 -10 0
-15 7 0
10 -7 15 0
-17 2 0
-17 16 0
-2 -16 17 0
-18 16 0
-18 -7 0
-16 7 18 0
-17 -18 -19 0
17 18 -19 0
-17 18 19 0
17 -18 19 0
-19 5 -20 0
19 -5 -20 0
-19 -5 20 0
19 5 20 0
15 20 -21 0
-15 -20 -21 0
15 -20 21 0
-15 20 21 0
22 14 0
22 -21 0
-14 21 -22 0
23 -16 0
23 17 0
16 -17 -23 0
-24 -2 0
-24 3 0
2 -3 24 0
25 5 0
25 -24 0
-5 24 -25 0
26 -20 0
26 -7 0
20 7 -26 0
27 -26 0
27 18 0
26 -18 -27 0
28 26 0
28 -7 0
-26 7 -28 0
27 28 -29 0
-27 -28 -29 0
27 -28 29 0
-27 28 29 0
30 -25 0
30 -29 0
25 29 -30 0
31 23 0
31 30 0
-23 -30 -31 0
-32 22 0
-32 31 0
-22 -31 32 0
19 2 -33 0
-19 -2 -33 0
19 -2 33 0
-19 2 33 0
5 -4 -34 0
-5 4 -34 0
5 4 34 0
-5 -4 34 0
-7 -35 -36 0
7 35 -36 0
-7 35 36 0
7 -35 36 0
37 -34 0
37 -36 0
34 36 -37 0
-33 37 -38 0
33 -37 -38 0
-33 -37 38 0
33 37 38 0
39 32 0
39 38 0
-32 -38 -39 0
40 -12 0
40 -39 0
12 39 -40 0
24 -21 -12 7 2 32 0
39 19 21 15 34 -24 0
37 -21 39 -38 -26 31 -15 0
12 32 28 -17 -23 8 0
13 -32 -9 0
-11 -6 -18 14 0
-16 -14 -10 22 33 0
39 -11 2 37 6 0
-28 21 -36 -38 18 -3 0
22 -10 -36 -18 -29 19 0
27 -36 -12 0
40 0
